(set-logic QF_UF)
(declare-fun G101 () Bool)
(declare-fun G104 () Bool)
(declare-fun G107 () Bool)
(declare-fun G110 () Bool)
(declare-fun G113 () Bool)
(declare-fun G116 () Bool)
(declare-fun G119 () Bool)
(declare-fun G122 () Bool)
(declare-fun G125 () Bool)
(declare-fun G128 () Bool)
(declare-fun G131 () Bool)
(declare-fun G134 () Bool)
(declare-fun G137 () Bool)
(declare-fun G140 () Bool)
(declare-fun G143 () Bool)
(declare-fun G146 () Bool)
(declare-fun G210 () Bool)
(declare-fun G214 () Bool)
(declare-fun G217 () Bool)
(declare-fun G221 () Bool)
(declare-fun G224 () Bool)
(declare-fun G227 () Bool)
(declare-fun G234 () Bool)
(declare-fun G237 () Bool)
(declare-fun G469 () Bool)
(declare-fun G472 () Bool)
(declare-fun G475 () Bool)
(declare-fun G478 () Bool)
(declare-fun G898 () Bool)
(declare-fun G900 () Bool)
(declare-fun G902 () Bool)
(declare-fun G952 () Bool)
(declare-fun G953 () Bool)
(assert (let ((.def_0 (not G140))) (let ((.def_1 (and .def_0 G110))) (let ((.def_2 (not .def_1))) (let ((.def_3 (not G110))) (let ((.def_4 (and G140 .def_3))) (let ((.def_5 (not .def_4))) (let ((.def_6 (and .def_5 .def_2))) (let ((.def_7 (not G953))) (let ((.def_8 (and .def_7 G227))) (let ((.def_9 (and .def_8 .def_6))) (let ((.def_10 (not .def_9))) (let ((.def_11 (not .def_6))) (let ((.def_12 (not .def_8))) (let ((.def_13 (and .def_12 .def_11))) (let ((.def_14 (not .def_13))) (let ((.def_15 (and .def_14 .def_10))) (let ((.def_16 (not G101))) (let ((.def_17 (not G107))) (let ((.def_18 (and G104 .def_17))) (let ((.def_19 (not .def_18))) (let ((.def_20 (not G104))) (let ((.def_21 (and .def_20 G107))) (let ((.def_22 (not .def_21))) (let ((.def_23 (and .def_22 .def_19))) (let ((.def_24 (and .def_23 .def_16))) (let ((.def_25 (not .def_24))) (let ((.def_26 (not .def_23))) (let ((.def_27 (and .def_26 G101))) (let ((.def_28 (not .def_27))) (let ((.def_29 (and .def_28 .def_25))) (let ((.def_30 (not .def_29))) (let ((.def_31 (not G146))) (let ((.def_32 (and .def_31 G143))) (let ((.def_33 (not .def_32))) (let ((.def_34 (not G143))) (let ((.def_35 (and G146 .def_34))) (let ((.def_36 (not .def_35))) (let ((.def_37 (and .def_36 .def_33))) (let ((.def_38 (not G128))) (let ((.def_39 (and .def_38 .def_37))) (let ((.def_40 (not .def_39))) (let ((.def_41 (not .def_37))) (let ((.def_42 (and G128 .def_41))) (let ((.def_43 (not .def_42))) (let ((.def_44 (and .def_43 .def_40))) (let ((.def_45 (not .def_44))) (let ((.def_46 (and .def_45 .def_30))) (let ((.def_47 (not .def_46))) (let ((.def_48 (and .def_29 .def_44))) (let ((.def_49 (not .def_48))) (let ((.def_50 (and .def_49 .def_47))) (let ((.def_51 (not .def_50))) (let ((.def_52 (not G137))) (let ((.def_53 (and .def_52 G134))) (let ((.def_54 (not .def_53))) (let ((.def_55 (not G134))) (let ((.def_56 (and .def_55 G137))) (let ((.def_57 (not .def_56))) (let ((.def_58 (and .def_57 .def_54))) (let ((.def_59 (not G131))) (let ((.def_60 (and .def_59 .def_58))) (let ((.def_61 (not .def_60))) (let ((.def_62 (not .def_58))) (let ((.def_63 (and .def_62 G131))) (let ((.def_64 (not .def_63))) (let ((.def_65 (and .def_64 .def_61))) (let ((.def_66 (not .def_65))) (let ((.def_67 (and .def_66 .def_51))) (let ((.def_68 (not .def_67))) (let ((.def_69 (and .def_65 .def_50))) (let ((.def_70 (not .def_69))) (let ((.def_71 (and .def_70 .def_68))) (let ((.def_72 (and .def_71 .def_15))) (let ((.def_73 (not .def_72))) (let ((.def_74 (not .def_15))) (let ((.def_75 (not .def_71))) (let ((.def_76 (and .def_75 .def_74))) (let ((.def_77 (not .def_76))) (let ((.def_78 (and .def_77 .def_73))) (let ((.def_79 (not .def_78))) (let ((.def_80 (not G902))) (let ((.def_81 (and .def_80 .def_79))) (let ((.def_82 (not .def_81))) (let ((.def_83 (and .def_82 G469))) (let ((.def_84 (not .def_83))) (let ((.def_85 (not G469))) (let ((.def_86 (and .def_85 .def_81))) (let ((.def_87 (not .def_86))) (let ((.def_88 (and .def_87 .def_84))) (let ((.def_89 (and .def_80 G234))) (let ((.def_90 (not .def_89))) (let ((.def_91 (and G221 .def_90))) (let ((.def_92 (not .def_91))) (let ((.def_93 (and .def_92 .def_88))) (let ((.def_94 (not G237))) (let ((.def_95 (and .def_80 .def_94))) (let ((.def_96 (not .def_95))) (let ((.def_97 (and G214 .def_96))) (let ((.def_98 (not .def_97))) (let ((.def_99 (not G119))) (let ((.def_100 (and G116 .def_99))) (let ((.def_101 (not .def_100))) (let ((.def_102 (not G116))) (let ((.def_103 (and G119 .def_102))) (let ((.def_104 (not .def_103))) (let ((.def_105 (and .def_104 .def_101))) (let ((.def_106 (not .def_105))) (let ((.def_107 (and G113 .def_106))) (let ((.def_108 (not .def_107))) (let ((.def_109 (not G113))) (let ((.def_110 (and .def_109 .def_105))) (let ((.def_111 (not .def_110))) (let ((.def_112 (and .def_111 .def_108))) (let ((.def_113 (and .def_17 G104))) (let ((.def_114 (not .def_113))) (let ((.def_115 (and G107 .def_20))) (let ((.def_116 (not .def_115))) (let ((.def_117 (and .def_116 .def_114))) (let ((.def_118 (and .def_117 .def_16))) (let ((.def_119 (not .def_118))) (let ((.def_120 (not .def_117))) (let ((.def_121 (and .def_120 G101))) (let ((.def_122 (not .def_121))) (let ((.def_123 (and .def_122 .def_119))) (let ((.def_124 (and .def_123 .def_112))) (let ((.def_125 (not .def_124))) (let ((.def_126 (not .def_123))) (let ((.def_127 (not .def_112))) (let ((.def_128 (and .def_127 .def_126))) (let ((.def_129 (not .def_128))) (let ((.def_130 (and .def_129 .def_125))) (let ((.def_131 (and .def_3 G122))) (let ((.def_132 (not .def_131))) (let ((.def_133 (not G122))) (let ((.def_134 (and G110 .def_133))) (let ((.def_135 (not .def_134))) (let ((.def_136 (and .def_135 .def_132))) (let ((.def_137 (and .def_136 .def_130))) (let ((.def_138 (not .def_137))) (let ((.def_139 (not .def_130))) (let ((.def_140 (not .def_136))) (let ((.def_141 (and .def_140 .def_139))) (let ((.def_142 (not .def_141))) (let ((.def_143 (and .def_142 .def_138))) (let ((.def_144 (not G125))) (let ((.def_145 (and .def_34 G146))) (let ((.def_146 (not .def_145))) (let ((.def_147 (and .def_33 .def_146))) (let ((.def_148 (not .def_147))) (let ((.def_149 (and G128 .def_148))) (let ((.def_150 (not .def_149))) (let ((.def_151 (and .def_147 .def_38))) (let ((.def_152 (not .def_151))) (let ((.def_153 (and .def_152 .def_150))) (let ((.def_154 (and .def_153 .def_144))) (let ((.def_155 (not .def_154))) (let ((.def_156 (not .def_153))) (let ((.def_157 (and .def_156 G125))) (let ((.def_158 (not .def_157))) (let ((.def_159 (and .def_158 .def_155))) (let ((.def_160 (and G224 .def_7))) (let ((.def_161 (and .def_160 .def_159))) (let ((.def_162 (not .def_161))) (let ((.def_163 (not .def_160))) (let ((.def_164 (not .def_159))) (let ((.def_165 (and .def_164 .def_163))) (let ((.def_166 (not .def_165))) (let ((.def_167 (and .def_166 .def_162))) (let ((.def_168 (and .def_167 .def_143))) (let ((.def_169 (not .def_168))) (let ((.def_170 (not .def_143))) (let ((.def_171 (not .def_167))) (let ((.def_172 (and .def_171 .def_170))) (let ((.def_173 (not .def_172))) (let ((.def_174 (and .def_173 .def_169))) (let ((.def_175 (and .def_174 .def_80))) (let ((.def_176 (not .def_175))) (let ((.def_177 (and .def_96 G210))) (let ((.def_178 (and .def_177 .def_176))) (let ((.def_179 (not .def_178))) (let ((.def_180 (not .def_177))) (let ((.def_181 (and .def_180 .def_175))) (let ((.def_182 (not .def_181))) (let ((.def_183 (and .def_182 .def_179))) (let ((.def_184 (not .def_183))) (let ((.def_185 (and .def_184 .def_98))) (let ((.def_186 (and G237 G234))) (let ((.def_187 (not .def_186))) (let ((.def_188 (not G898))) (let ((.def_189 (and .def_188 G953 .def_187 G902))) (let ((.def_190 (not .def_189))) (let ((.def_191 (and .def_187 .def_7 G952))) (let ((.def_192 (not .def_191))) (let ((.def_193 (and .def_192 .def_190))) (let ((.def_194 (not .def_193))) (let ((.def_195 (and .def_144 G140))) (let ((.def_196 (not .def_195))) (let ((.def_197 (and .def_0 G125))) (let ((.def_198 (not .def_197))) (let ((.def_199 (and .def_198 .def_196))) (let ((.def_200 (and .def_31 .def_199))) (let ((.def_201 (not .def_200))) (let ((.def_202 (not .def_199))) (let ((.def_203 (and G146 .def_202))) (let ((.def_204 (not .def_203))) (let ((.def_205 (and .def_204 .def_201))) (let ((.def_206 (and .def_7 G214 .def_94))) (let ((.def_207 (and G143 .def_206))) (let ((.def_208 (not .def_207))) (let ((.def_209 (not .def_206))) (let ((.def_210 (and .def_34 .def_209))) (let ((.def_211 (not .def_210))) (let ((.def_212 (and .def_211 .def_208))) (let ((.def_213 (and .def_212 .def_59))) (let ((.def_214 (not .def_213))) (let ((.def_215 (not .def_212))) (let ((.def_216 (and .def_215 G131))) (let ((.def_217 (not .def_216))) (let ((.def_218 (and .def_217 .def_214))) (let ((.def_219 (not .def_218))) (let ((.def_220 (and .def_219 .def_205))) (let ((.def_221 (not .def_220))) (let ((.def_222 (not .def_205))) (let ((.def_223 (and .def_222 .def_218))) (let ((.def_224 (not .def_223))) (let ((.def_225 (and .def_224 .def_221))) (let ((.def_226 (and G122 .def_109))) (let ((.def_227 (not .def_226))) (let ((.def_228 (and .def_133 G113))) (let ((.def_229 (not .def_228))) (let ((.def_230 (and .def_229 .def_227))) (let ((.def_231 (and .def_230 .def_20))) (let ((.def_232 (not .def_231))) (let ((.def_233 (not .def_230))) (let ((.def_234 (and G104 .def_233))) (let ((.def_235 (not .def_234))) (let ((.def_236 (and .def_235 .def_232))) (let ((.def_237 (not .def_236))) (let ((.def_238 (and .def_237 .def_225))) (let ((.def_239 (not .def_238))) (let ((.def_240 (not .def_225))) (let ((.def_241 (and .def_236 .def_240))) (let ((.def_242 (not .def_241))) (let ((.def_243 (and .def_242 .def_239))) (let ((.def_244 (not .def_243))) (let ((.def_245 (and .def_80 .def_244))) (let ((.def_246 (not G475))) (let ((.def_247 (and .def_246 .def_245))) (let ((.def_248 (not .def_247))) (let ((.def_249 (not .def_245))) (let ((.def_250 (and .def_249 G475))) (let ((.def_251 (not .def_250))) (let ((.def_252 (and .def_251 .def_248))) (let ((.def_253 (not .def_252))) (let ((.def_254 (and .def_7 G234 G217))) (let ((.def_255 (not .def_254))) (let ((.def_256 (and G116 .def_133))) (let ((.def_257 (not .def_256))) (let ((.def_258 (and .def_102 G122))) (let ((.def_259 (not .def_258))) (let ((.def_260 (and .def_259 .def_257))) (let ((.def_261 (not .def_260))) (let ((.def_262 (and .def_261 G107))) (let ((.def_263 (not .def_262))) (let ((.def_264 (and .def_260 .def_17))) (let ((.def_265 (not .def_264))) (let ((.def_266 (and .def_265 .def_263))) (let ((.def_267 (and .def_38 G143))) (let ((.def_268 (not .def_267))) (let ((.def_269 (and .def_34 G128))) (let ((.def_270 (not .def_269))) (let ((.def_271 (and .def_270 .def_268))) (let ((.def_272 (and .def_271 .def_55))) (let ((.def_273 (not .def_272))) (let ((.def_274 (not .def_271))) (let ((.def_275 (and G134 .def_274))) (let ((.def_276 (not .def_275))) (let ((.def_277 (and .def_276 .def_273))) (let ((.def_278 (not .def_277))) (let ((.def_279 (and .def_278 .def_266))) (let ((.def_280 (not .def_279))) (let ((.def_281 (not .def_266))) (let ((.def_282 (and .def_281 .def_277))) (let ((.def_283 (not .def_282))) (let ((.def_284 (and .def_283 .def_280))) (let ((.def_285 (not .def_284))) (let ((.def_286 (and .def_285 .def_255))) (let ((.def_287 (not .def_286))) (let ((.def_288 (and .def_284 .def_254))) (let ((.def_289 (not .def_288))) (let ((.def_290 (and .def_289 .def_287))) (let ((.def_291 (not .def_290))) (let ((.def_292 (and .def_80 .def_291))) (let ((.def_293 (not G478))) (let ((.def_294 (and .def_293 .def_292))) (let ((.def_295 (not .def_294))) (let ((.def_296 (not .def_292))) (let ((.def_297 (and .def_296 G478))) (let ((.def_298 (not .def_297))) (let ((.def_299 (and .def_298 .def_295))) (let ((.def_300 (not .def_299))) (let ((.def_301 (and .def_300 .def_253))) (let ((.def_302 (and G128 .def_99))) (let ((.def_303 (not .def_302))) (let ((.def_304 (and G119 .def_38))) (let ((.def_305 (not .def_304))) (let ((.def_306 (and .def_305 .def_303))) (let ((.def_307 (not .def_306))) (let ((.def_308 (and .def_307 G110))) (let ((.def_309 (not .def_308))) (let ((.def_310 (and .def_3 .def_306))) (let ((.def_311 (not .def_310))) (let ((.def_312 (and .def_311 .def_309))) (let ((.def_313 (and .def_199 .def_31))) (let ((.def_314 (not .def_313))) (let ((.def_315 (and .def_204 .def_314))) (let ((.def_316 (not .def_315))) (let ((.def_317 (and .def_316 .def_312))) (let ((.def_318 (not .def_317))) (let ((.def_319 (not .def_312))) (let ((.def_320 (and .def_315 .def_319))) (let ((.def_321 (not .def_320))) (let ((.def_322 (and .def_321 .def_318))) (let ((.def_323 (not .def_322))) (let ((.def_324 (and G234 G221 .def_7))) (let ((.def_325 (and G137 .def_324))) (let ((.def_326 (not .def_325))) (let ((.def_327 (not .def_324))) (let ((.def_328 (and .def_327 .def_52))) (let ((.def_329 (not .def_328))) (let ((.def_330 (and .def_329 .def_326))) (let ((.def_331 (not .def_330))) (let ((.def_332 (and .def_331 .def_323))) (let ((.def_333 (not .def_332))) (let ((.def_334 (and .def_330 .def_322))) (let ((.def_335 (not .def_334))) (let ((.def_336 (and .def_335 .def_333))) (let ((.def_337 (not .def_336))) (let ((.def_338 (and .def_337 .def_80))) (let ((.def_339 (not .def_338))) (let ((.def_340 (and .def_90 G217))) (let ((.def_341 (and .def_340 .def_339))) (let ((.def_342 (not .def_341))) (let ((.def_343 (not .def_340))) (let ((.def_344 (and .def_343 .def_338))) (let ((.def_345 (not .def_344))) (let ((.def_346 (and .def_345 .def_342))) (let ((.def_347 (and .def_7 .def_94 G210))) (let ((.def_348 (and G101 .def_347))) (let ((.def_349 (not .def_348))) (let ((.def_350 (not .def_347))) (let ((.def_351 (and .def_16 .def_350))) (let ((.def_352 (not .def_351))) (let ((.def_353 (and .def_352 .def_349))) (let ((.def_354 (not .def_353))) (let ((.def_355 (and .def_102 G119))) (let ((.def_356 (not .def_355))) (let ((.def_357 (and .def_101 .def_356))) (let ((.def_358 (and .def_109 .def_357))) (let ((.def_359 (not .def_358))) (let ((.def_360 (not .def_357))) (let ((.def_361 (and .def_360 G113))) (let ((.def_362 (not .def_361))) (let ((.def_363 (and .def_362 .def_359))) (let ((.def_364 (and .def_153 .def_65))) (let ((.def_365 (not .def_364))) (let ((.def_366 (and .def_66 .def_156))) (let ((.def_367 (not .def_366))) (let ((.def_368 (and .def_367 .def_365))) (let ((.def_369 (and .def_368 .def_363))) (let ((.def_370 (not .def_369))) (let ((.def_371 (not .def_363))) (let ((.def_372 (not .def_368))) (let ((.def_373 (and .def_372 .def_371))) (let ((.def_374 (not .def_373))) (let ((.def_375 (and .def_374 .def_370))) (let ((.def_376 (and .def_375 .def_354))) (let ((.def_377 (not .def_376))) (let ((.def_378 (not .def_375))) (let ((.def_379 (and .def_353 .def_378))) (let ((.def_380 (not .def_379))) (let ((.def_381 (and .def_380 .def_377))) (let ((.def_382 (not .def_381))) (let ((.def_383 (and .def_80 .def_382))) (let ((.def_384 (not .def_383))) (let ((.def_385 (and G472 .def_384))) (let ((.def_386 (not .def_385))) (let ((.def_387 (not G472))) (let ((.def_388 (and .def_387 .def_383))) (let ((.def_389 (not .def_388))) (let ((.def_390 (and .def_389 .def_386))) (let ((.def_391 (and .def_390 .def_346))) (let ((.def_392 (and .def_391 .def_301 .def_194 .def_185 .def_93))) (let ((.def_393 (and .def_133 .def_392))) (let ((.def_394 (not .def_393))) (let ((.def_395 (not .def_392))) (let ((.def_396 (and .def_395 G122))) (let ((.def_397 (not .def_396))) (let ((.def_398 (and .def_397 .def_394))) (let ((.def_399 (and G224 G898))) (let ((.def_400 (not .def_399))) (let ((.def_401 (and .def_400 G953))) (let ((.def_402 (and .def_126 .def_127))) (let ((.def_403 (not .def_402))) (let ((.def_404 (and .def_403 .def_125))) (let ((.def_405 (and .def_136 .def_404))) (let ((.def_406 (not .def_405))) (let ((.def_407 (not .def_404))) (let ((.def_408 (and .def_407 .def_140))) (let ((.def_409 (not .def_408))) (let ((.def_410 (and .def_409 .def_406))) (let ((.def_411 (and .def_188 G953))) (let ((.def_412 (not .def_411))) (let ((.def_413 (and .def_412 .def_410))) (let ((.def_414 (not .def_413))) (let ((.def_415 (not .def_390))) (let ((.def_416 (and .def_415 .def_346))) (let ((.def_417 (and .def_299 .def_253))) (let ((.def_418 (and .def_417 .def_416 .def_194 .def_185 .def_93))) (let ((.def_419 (not .def_418))) (let ((.def_420 (and .def_299 .def_252))) (let ((.def_421 (not .def_346))) (let ((.def_422 (and .def_415 .def_421))) (let ((.def_423 (and .def_422 .def_194 .def_185 .def_93 .def_420))) (let ((.def_424 (not .def_423))) (let ((.def_425 (not .def_88))) (let ((.def_426 (and .def_92 .def_425))) (let ((.def_427 (and .def_420 .def_416 .def_194 .def_185 .def_426))) (let ((.def_428 (not .def_427))) (let ((.def_429 (and .def_252 .def_300))) (let ((.def_430 (and .def_391 .def_429 .def_194 .def_185 .def_426))) (let ((.def_431 (not .def_430))) (let ((.def_432 (and .def_390 .def_421))) (let ((.def_433 (and .def_420 .def_432 .def_194 .def_185 .def_426))) (let ((.def_434 (not .def_433))) (let ((.def_435 (and .def_391 .def_417 .def_194 .def_185 .def_426))) (let ((.def_436 (not .def_435))) (let ((.def_437 (and .def_416 .def_429 .def_194 .def_185 .def_93))) (let ((.def_438 (not .def_437))) (let ((.def_439 (and .def_438 .def_395 .def_436 .def_434 .def_431 .def_428 .def_424 .def_419))) (let ((.def_440 (not .def_439))) (let ((.def_441 (and .def_7 .def_440))) (let ((.def_442 (and .def_441 .def_414))) (let ((.def_443 (not .def_442))) (let ((.def_444 (not .def_441))) (let ((.def_445 (and .def_444 .def_413))) (let ((.def_446 (not .def_445))) (let ((.def_447 (and .def_446 .def_443))) (let ((.def_448 (and .def_447 .def_401))) (let ((.def_449 (not .def_448))) (let ((.def_450 (not .def_401))) (let ((.def_451 (not .def_447))) (let ((.def_452 (and .def_451 .def_450))) (let ((.def_453 (not .def_452))) (let ((.def_454 (and .def_453 .def_449))) (let ((.def_455 (not G952))) (let ((.def_456 (and .def_455 G953))) (let ((.def_457 (not .def_456))) (let ((.def_458 (and .def_3 G140))) (let ((.def_459 (not .def_458))) (let ((.def_460 (and .def_459 .def_2))) (let ((.def_461 (and .def_460 .def_8))) (let ((.def_462 (not .def_461))) (let ((.def_463 (not .def_460))) (let ((.def_464 (and .def_463 .def_12))) (let ((.def_465 (not .def_464))) (let ((.def_466 (and .def_465 .def_462))) (let ((.def_467 (and .def_44 .def_29))) (let ((.def_468 (not .def_467))) (let ((.def_469 (and .def_30 .def_45))) (let ((.def_470 (not .def_469))) (let ((.def_471 (and .def_470 .def_468))) (let ((.def_472 (not .def_471))) (let ((.def_473 (and .def_472 .def_66))) (let ((.def_474 (not .def_473))) (let ((.def_475 (and .def_471 .def_65))) (let ((.def_476 (not .def_475))) (let ((.def_477 (and .def_476 .def_474))) (let ((.def_478 (and .def_477 .def_466))) (let ((.def_479 (not .def_478))) (let ((.def_480 (not .def_466))) (let ((.def_481 (not .def_477))) (let ((.def_482 (and .def_481 .def_480))) (let ((.def_483 (not .def_482))) (let ((.def_484 (and .def_483 .def_479))) (let ((.def_485 (and .def_98 .def_183))) (let ((.def_486 (not G900))) (let ((.def_487 (and .def_187 G953 G902 .def_486))) (let ((.def_488 (not .def_487))) (let ((.def_489 (and .def_488 .def_192))) (let ((.def_490 (not .def_489))) (let ((.def_491 (and .def_426 .def_416 .def_490 .def_429 .def_485))) (let ((.def_492 (not .def_491))) (let ((.def_493 (and .def_426 .def_422 .def_490 .def_485 .def_420))) (let ((.def_494 (not .def_493))) (let ((.def_495 (and .def_422 .def_490 .def_429 .def_185 .def_426))) (let ((.def_496 (not .def_495))) (let ((.def_497 (and .def_426 .def_422 .def_417 .def_490 .def_185))) (let ((.def_498 (not .def_497))) (let ((.def_499 (and .def_426 .def_417 .def_416 .def_490 .def_485))) (let ((.def_500 (not .def_499))) (let ((.def_501 (and .def_417 .def_490 .def_432 .def_185 .def_93))) (let ((.def_502 (not .def_501))) (let ((.def_503 (and .def_426 .def_417 .def_490 .def_432 .def_485))) (let ((.def_504 (not .def_503))) (let ((.def_505 (and .def_426 .def_301 .def_416 .def_490 .def_185))) (let ((.def_506 (not .def_505))) (let ((.def_507 (and .def_506 .def_504 .def_502 .def_500 .def_498 .def_496 .def_494 .def_492))) (let ((.def_508 (and .def_507 .def_439))) (let ((.def_509 (not .def_508))) (let ((.def_510 (and .def_509 G902 G469))) (let ((.def_511 (and .def_510 .def_484))) (let ((.def_512 (not .def_511))) (let ((.def_513 (not .def_484))) (let ((.def_514 (not .def_510))) (let ((.def_515 (and .def_514 .def_513))) (let ((.def_516 (not .def_515))) (let ((.def_517 (and .def_516 .def_512))) (let ((.def_518 (not .def_517))) (let ((.def_519 (and .def_518 .def_457))) (let ((.def_520 (not .def_519))) (let ((.def_521 (and .def_509 G902 .def_340))) (let ((.def_522 (and .def_521 .def_336))) (let ((.def_523 (not .def_522))) (let ((.def_524 (not .def_521))) (let ((.def_525 (and .def_524 .def_337))) (let ((.def_526 (not .def_525))) (let ((.def_527 (and .def_526 .def_523))) (let ((.def_528 (not .def_527))) (let ((.def_529 (and .def_528 .def_457))) (let ((.def_530 (not .def_529))) (let ((.def_531 (and G900 G227))) (let ((.def_532 (not .def_531))) (let ((.def_533 (and G953 .def_532))) (let ((.def_534 (and G125 .def_0))) (let ((.def_535 (not .def_534))) (let ((.def_536 (and .def_196 .def_535))) (let ((.def_537 (and G137 .def_55))) (let ((.def_538 (not .def_537))) (let ((.def_539 (and .def_538 .def_54))) (let ((.def_540 (not .def_539))) (let ((.def_541 (and .def_540 G131))) (let ((.def_542 (not .def_541))) (let ((.def_543 (and .def_59 .def_539))) (let ((.def_544 (not .def_543))) (let ((.def_545 (and .def_544 .def_542))) (let ((.def_546 (and .def_545 .def_44))) (let ((.def_547 (not .def_546))) (let ((.def_548 (not .def_545))) (let ((.def_549 (and .def_45 .def_548))) (let ((.def_550 (not .def_549))) (let ((.def_551 (and .def_550 .def_547))) (let ((.def_552 (and .def_551 .def_536))) (let ((.def_553 (not .def_552))) (let ((.def_554 (not .def_536))) (let ((.def_555 (not .def_551))) (let ((.def_556 (and .def_555 .def_554))) (let ((.def_557 (not .def_556))) (let ((.def_558 (and .def_557 .def_553))) (let ((.def_559 (and G953 .def_486))) (let ((.def_560 (not .def_559))) (let ((.def_561 (and .def_560 .def_558))) (let ((.def_562 (not .def_561))) (let ((.def_563 (not .def_507))) (let ((.def_564 (and .def_563 .def_7))) (let ((.def_565 (and .def_564 .def_562))) (let ((.def_566 (not .def_565))) (let ((.def_567 (not .def_564))) (let ((.def_568 (and .def_567 .def_561))) (let ((.def_569 (not .def_568))) (let ((.def_570 (and .def_569 .def_566))) (let ((.def_571 (and .def_570 .def_533))) (let ((.def_572 (not .def_571))) (let ((.def_573 (not .def_533))) (let ((.def_574 (not .def_570))) (let ((.def_575 (and .def_574 .def_573))) (let ((.def_576 (not .def_575))) (let ((.def_577 (and .def_576 .def_572))) (let ((.def_578 (not .def_577))) (let ((.def_579 (and .def_350 .def_16))) (let ((.def_580 (not .def_579))) (let ((.def_581 (and .def_347 G101))) (let ((.def_582 (not .def_581))) (let ((.def_583 (and .def_582 .def_580))) (let ((.def_584 (and .def_509 G472 G902))) (let ((.def_585 (and .def_156 .def_66))) (let ((.def_586 (not .def_585))) (let ((.def_587 (and .def_586 .def_365))) (let ((.def_588 (and .def_587 .def_363))) (let ((.def_589 (not .def_588))) (let ((.def_590 (not .def_587))) (let ((.def_591 (and .def_371 .def_590))) (let ((.def_592 (not .def_591))) (let ((.def_593 (and .def_592 .def_589))) (let ((.def_594 (and .def_593 .def_584))) (let ((.def_595 (not .def_594))) (let ((.def_596 (not .def_584))) (let ((.def_597 (not .def_593))) (let ((.def_598 (and .def_597 .def_596))) (let ((.def_599 (not .def_598))) (let ((.def_600 (and .def_599 .def_595))) (let ((.def_601 (not .def_600))) (let ((.def_602 (and .def_601 .def_583))) (let ((.def_603 (not .def_602))) (let ((.def_604 (not .def_583))) (let ((.def_605 (and .def_600 .def_604))) (let ((.def_606 (not .def_605))) (let ((.def_607 (and .def_606 .def_603))) (let ((.def_608 (not .def_607))) (let ((.def_609 (and .def_608 .def_457))) (let ((.def_610 (and .def_493 .def_52))) (let ((.def_611 (not .def_610))) (let ((.def_612 (and G137 .def_494))) (let ((.def_613 (not .def_612))) (let ((.def_614 (and .def_613 .def_611))) (let ((.def_615 (and .def_55 .def_491))) (let ((.def_616 (not .def_615))) (let ((.def_617 (and G134 .def_492))) (let ((.def_618 (not .def_617))) (let ((.def_619 (and .def_618 .def_616))) (let ((.def_620 (and .def_428 G101))) (let ((.def_621 (not .def_620))) (let ((.def_622 (and .def_16 .def_427))) (let ((.def_623 (not .def_622))) (let ((.def_624 (and .def_623 .def_621))) (let ((.def_625 (not .def_624))) (let ((.def_626 (and .def_505 .def_34))) (let ((.def_627 (not .def_626))) (let ((.def_628 (and G143 .def_506))) (let ((.def_629 (not .def_628))) (let ((.def_630 (and .def_629 .def_627))) (let ((.def_631 (not .def_630))) (let ((.def_632 (and .def_0 .def_503))) (let ((.def_633 (not .def_632))) (let ((.def_634 (and G140 .def_504))) (let ((.def_635 (not .def_634))) (let ((.def_636 (and .def_635 .def_633))) (let ((.def_637 (not .def_636))) (let ((.def_638 (and .def_179 .def_182))) (let ((.def_639 (and .def_84 .def_87))) (let ((.def_640 (and G475 .def_249))) (let ((.def_641 (not .def_640))) (let ((.def_642 (and .def_248 .def_641))) (let ((.def_643 (and .def_292 .def_293))) (let ((.def_644 (not .def_643))) (let ((.def_645 (and .def_644 .def_298))) (let ((.def_646 (and .def_342 .def_345))) (let ((.def_647 (and .def_383 .def_387))) (let ((.def_648 (not .def_647))) (let ((.def_649 (and .def_384 G472))) (let ((.def_650 (not .def_649))) (let ((.def_651 (and .def_650 .def_648))) (let ((.def_652 (and .def_651 .def_98 .def_646 .def_645 .def_642 .def_92 .def_639 .def_638))) (let ((.def_653 (not .def_652))) (let ((.def_654 (and .def_7 .def_455 .def_653))) (let ((.def_655 (and .def_191 .def_426 .def_391 .def_485 .def_420))) (let ((.def_656 (not .def_655))) (let ((.def_657 (and .def_191 .def_416 .def_485 .def_420 .def_93))) (let ((.def_658 (not .def_657))) (let ((.def_659 (and .def_191 .def_391 .def_417 .def_485 .def_93))) (let ((.def_660 (not .def_659))) (let ((.def_661 (and .def_191 .def_391 .def_429 .def_485 .def_93))) (let ((.def_662 (not .def_661))) (let ((.def_663 (and .def_191 .def_391 .def_185 .def_93 .def_420))) (let ((.def_664 (not .def_663))) (let ((.def_665 (and .def_97 .def_183))) (let ((.def_666 (and .def_191 .def_391 .def_93 .def_420 .def_665))) (let ((.def_667 (not .def_666))) (let ((.def_668 (and .def_88 .def_91))) (let ((.def_669 (and .def_191 .def_391 .def_668 .def_485 .def_420))) (let ((.def_670 (not .def_669))) (let ((.def_671 (and .def_191 .def_432 .def_485 .def_420 .def_93))) (let ((.def_672 (not .def_671))) (let ((.def_673 (and .def_672 .def_670 .def_667 .def_664 .def_662 .def_660 .def_658 .def_656))) (let ((.def_674 (and .def_507 .def_673 .def_439))) (let ((.def_675 (and .def_7 .def_674 .def_653 G952))) (let ((.def_676 (or .def_675 .def_654))) (let ((.def_677 (and G104 .def_436))) (let ((.def_678 (not .def_677))) (let ((.def_679 (and .def_20 .def_435))) (let ((.def_680 (not .def_679))) (let ((.def_681 (and .def_680 .def_678))) (let ((.def_682 (not .def_681))) (let ((.def_683 (and .def_38 .def_495))) (let ((.def_684 (not .def_683))) (let ((.def_685 (and .def_496 G128))) (let ((.def_686 (not .def_685))) (let ((.def_687 (and .def_686 .def_684))) (let ((.def_688 (and .def_437 .def_102))) (let ((.def_689 (not .def_688))) (let ((.def_690 (and G116 .def_438))) (let ((.def_691 (not .def_690))) (let ((.def_692 (and .def_691 .def_689))) (let ((.def_693 (not .def_692))) (let ((.def_694 (and .def_498 G146))) (let ((.def_695 (not .def_694))) (let ((.def_696 (and .def_497 .def_31))) (let ((.def_697 (not .def_696))) (let ((.def_698 (and .def_697 .def_695))) (let ((.def_699 (and G125 .def_156))) (let ((.def_700 (not .def_699))) (let ((.def_701 (and .def_700 .def_155))) (let ((.def_702 (and .def_160 .def_701))) (let ((.def_703 (not .def_702))) (let ((.def_704 (not .def_701))) (let ((.def_705 (and .def_704 .def_163))) (let ((.def_706 (not .def_705))) (let ((.def_707 (and .def_706 .def_703))) (let ((.def_708 (and .def_170 .def_707))) (let ((.def_709 (not .def_708))) (let ((.def_710 (not .def_707))) (let ((.def_711 (and .def_710 .def_143))) (let ((.def_712 (not .def_711))) (let ((.def_713 (and .def_712 .def_709))) (let ((.def_714 (and .def_509 G902 .def_177))) (let ((.def_715 (and .def_714 .def_713))) (let ((.def_716 (not .def_715))) (let ((.def_717 (not .def_714))) (let ((.def_718 (not .def_713))) (let ((.def_719 (and .def_718 .def_717))) (let ((.def_720 (not .def_719))) (let ((.def_721 (and .def_720 .def_716))) (let ((.def_722 (not .def_721))) (let ((.def_723 (and .def_722 .def_457))) (let ((.def_724 (and .def_99 .def_423))) (let ((.def_725 (not .def_724))) (let ((.def_726 (and .def_424 G119))) (let ((.def_727 (not .def_726))) (let ((.def_728 (and .def_727 .def_725))) (let ((.def_729 (and .def_499 .def_59))) (let ((.def_730 (not .def_729))) (let ((.def_731 (and .def_500 G131))) (let ((.def_732 (not .def_731))) (let ((.def_733 (and .def_732 .def_730))) (let ((.def_734 (and G125 .def_502))) (let ((.def_735 (not .def_734))) (let ((.def_736 (and .def_144 .def_501))) (let ((.def_737 (not .def_736))) (let ((.def_738 (and .def_737 .def_735))) (let ((.def_739 (not .def_738))) (let ((.def_740 (and .def_434 G110))) (let ((.def_741 (not .def_740))) (let ((.def_742 (and .def_433 .def_3))) (let ((.def_743 (not .def_742))) (let ((.def_744 (and .def_743 .def_741))) (let ((.def_745 (not .def_744))) (let ((.def_746 (and .def_109 .def_418))) (let ((.def_747 (not .def_746))) (let ((.def_748 (and G113 .def_419))) (let ((.def_749 (not .def_748))) (let ((.def_750 (and .def_749 .def_747))) (let ((.def_751 (not .def_750))) (let ((.def_752 (and .def_430 .def_17))) (let ((.def_753 (not .def_752))) (let ((.def_754 (and G107 .def_431))) (let ((.def_755 (not .def_754))) (let ((.def_756 (and .def_755 .def_753))) (let ((.def_757 (and .def_509 G902 G475))) (let ((.def_758 (and .def_243 .def_757))) (let ((.def_759 (not .def_758))) (let ((.def_760 (not .def_757))) (let ((.def_761 (and .def_760 .def_244))) (let ((.def_762 (not .def_761))) (let ((.def_763 (and .def_762 .def_759))) (let ((.def_764 (not .def_763))) (let ((.def_765 (and .def_457 .def_764))) (let ((.def_766 (and .def_509 G902 G478))) (let ((.def_767 (and .def_290 .def_766))) (let ((.def_768 (not .def_767))) (let ((.def_769 (not .def_766))) (let ((.def_770 (and .def_291 .def_769))) (let ((.def_771 (not .def_770))) (let ((.def_772 (and .def_771 .def_768))) (let ((.def_773 (not .def_772))) (let ((.def_774 (and .def_457 .def_773))) (let ((.def_775 (and .def_774 .def_765 .def_756 .def_751 .def_745 .def_739 .def_733 .def_728 .def_723 .def_698 .def_693 .def_687 .def_682 .def_676 .def_637 .def_631 .def_625 .def_619 .def_614 .def_609 .def_578 .def_530 .def_520 .def_454 .def_398))) .def_775)))))))))))))))))))))))))))))))))))))))))))))))))))))))))))))))))))))))))))))))))))))))))))))))))))))))))))))))))))))))))))))))))))))))))))))))))))))))))))))))))))))))))))))))))))))))))))))))))))))))))))))))))))))))))))))))))))))))))))))))))))))))))))))))))))))))))))))))))))))))))))))))))))))))))))))))))))))))))))))))))))))))))))))))))))))))))))))))))))))))))))))))))))))))))))))))))))))))))))))))))))))))))))))))))))))))))))))))))))))))))))))))))))))))))))))))))))))))))))))))))))))))))))))))))))))))))))))))))))))))))))))))))))))))))))))))))))))))))))))))))))))))))))))))))))))))))))))))))))))))))))))))))))))))))))))))))))))))))))))))))))))))))))))))))))))))))))))))))))))))))))))))))))))))))))))))))))))))))))))))))))))))))))))))))))))))))))))))))))))))))))))))))))))))))
(check-sat)
